SAT
-61 13 -89 -16 -88 -58 19 -76 -25 14 40 -93 4 -15 -23 -94 -32 -27 7 -17 59 24 -62 -29 -96 10 -72 79 12 20 64 -2 86 -1 6 73 -54 66 35 52 -9 -42 -98 -100 37 49 -33 70 -74 91 97 28 63 67 -18 48 21 47 75 65 77 60 -71 51 46 -81 26 -38 84 8 -41 -3 50 87 -11 -31 99 -90 55 -85 -36 -53 -5 -44 -78 -95 -56 -30 -43 80 34 -92 57 -83 -69 -68 45 -39 22 -82 0
